letting n =  10
letting blocks =  [[1, 1], [1, 6], [2, 7], [3, 3], [3, 6], [3, 7], [3, 10], [4, 1], [4, 2], [4, 5], [4, 7], [4, 10], [5, 1], [5, 3], [5, 6], [5, 8], [5, 9], [5, 10], [6, 4], [6, 8], [7, 1], [7, 7], [7, 8], [7, 9], [8, 3], [8, 4], [8, 6], [8, 8], [8, 9], [8, 10], [9, 5], [9, 6], [9, 8], [10, 1], [10, 3], [10, 7], [10, 8], [10, 9]]
